154999.14 
159438.60 
157300.15 
157796.28 
161306.00 
156669.28 
157031.55 
157802.83 
156968.46 
157764.39 
150015.13 
154937.67 
151608.42 
151848.05 
156480.89 
155495.62 
156038.04 
156799.93 
155947.13 
156426.14 
